words_hard_train/2990.qaiger
aag 103 24 0 1 79
2
4
8
16
18
22
24
28
30
36
38
44
46
52
54
60
62
116
128
136
146
156
178
192
207
6 3 5
10 7 8
12 6 9
14 11 13
20 17 19
26 23 25
32 29 31
34 26 32
40 37 39
42 34 40
48 45 47
50 42 48
56 53 55
58 50 56
64 61 63
66 58 64
68 20 66
70 27 33
72 71 35
74 35 41
76 75 43
78 73 77
80 43 49
82 81 51
84 78 83
86 51 57
88 87 59
90 84 89
92 59 65
94 93 67
96 90 95
98 68 97
100 21 67
102 100 96
104 99 103
106 14 105
108 15 104
110 107 109
112 85 88
114 113 91
118 115 117
120 114 116
122 119 121
124 79 82
126 125 85
130 127 129
132 126 128
134 131 133
138 72 136
140 73 137
142 139 141
144 142 76
148 26 147
150 27 146
152 149 151
154 145 153
158 73 157
160 72 156
162 159 161
164 143 77
166 162 165
168 154 166
170 134 168
172 122 170
174 91 94
176 175 97
180 176 179
182 177 178
184 181 183
186 172 185
188 110 186
190 101 69
194 191 192
196 190 193
198 195 197
200 198 97
202 199 96
204 201 203
206 188 205
i0 2 y1[7]
i1 1 x2[7]
i2 2 y2[7]
i3 2 y1[6]
i4 1 x2[6]
i5 2 y1[0]
i6 1 x2[0]
i7 2 y1[1]
i8 1 x2[1]
i9 2 y1[2]
i10 1 x2[2]
i11 2 y1[3]
i12 1 x2[3]
i13 2 y1[4]
i14 1 x2[4]
i15 2 y1[5]
i16 1 x2[5]
i17 2 y2[4]
i18 2 y2[3]
i19 2 y2[2]
i20 2 y2[0]
i21 2 y2[1]
i22 2 y2[5]
i23 2 y2[6]
o0 bool[0]
c
simplified
  !=
    subtract
      invert
        1
      or
        1 x2
        2 y1
    2 y2
