words_hard_train/2990.qaiger.qdimacs
p cnf 103 238
a 2 9 12 15 19 23 27 31 0
e 1 3 4 5 6 7 8 10 11 13 14 16 17 18 20 21 22 24 25 26 28 29 30 32 33 34 35 36 37 38 39 40 41 42 43 44 45 46 47 48 49 50 51 52 53 54 55 56 57 58 59 60 61 62 63 64 65 66 67 68 69 70 71 72 73 74 75 76 77 78 79 80 81 82 83 84 85 86 87 88 89 90 91 92 93 94 95 96 97 98 99 100 101 102 103 0
1 2 3 0
-1 -3 0
-2 -3 0
3 -4 5 0
-3 -5 0
4 -5 0
-3 4 6 0
3 -6 0
-4 -6 0
5 6 7 0
-5 -7 0
-6 -7 0
8 9 10 0
-8 -10 0
-9 -10 0
11 12 13 0
-11 -13 0
-12 -13 0
14 15 16 0
-14 -16 0
-15 -16 0
-13 -16 17 0
13 -17 0
16 -17 0
18 19 20 0
-18 -20 0
-19 -20 0
-17 -20 21 0
17 -21 0
20 -21 0
22 23 24 0
-22 -24 0
-23 -24 0
-21 -24 25 0
21 -25 0
24 -25 0
26 27 28 0
-26 -28 0
-27 -28 0
-25 -28 29 0
25 -29 0
28 -29 0
30 31 32 0
-30 -32 0
-31 -32 0
-29 -32 33 0
29 -33 0
32 -33 0
-10 -33 34 0
10 -34 0
33 -34 0
13 16 35 0
-13 -35 0
-16 -35 0
35 17 36 0
-35 -36 0
-17 -36 0
17 20 37 0
-17 -37 0
-20 -37 0
37 21 38 0
-37 -38 0
-21 -38 0
36 38 39 0
-36 -39 0
-38 -39 0
21 24 40 0
-21 -40 0
-24 -40 0
40 25 41 0
-40 -41 0
-25 -41 0
-39 41 42 0
39 -42 0
-41 -42 0
25 28 43 0
-25 -43 0
-28 -43 0
43 29 44 0
-43 -44 0
-29 -44 0
-42 44 45 0
42 -45 0
-44 -45 0
29 32 46 0
-29 -46 0
-32 -46 0
46 33 47 0
-46 -47 0
-33 -47 0
-45 47 48 0
45 -48 0
-47 -48 0
-34 48 49 0
34 -49 0
-48 -49 0
10 33 50 0
-10 -50 0
-33 -50 0
-50 -48 51 0
50 -51 0
48 -51 0
49 51 52 0
-49 -52 0
-51 -52 0
-7 52 53 0
7 -53 0
-52 -53 0
7 -52 54 0
-7 -54 0
52 -54 0
53 54 55 0
-53 -55 0
-54 -55 0
42 -44 56 0
-42 -56 0
44 -56 0
56 45 57 0
-56 -57 0
-45 -57 0
57 58 59 0
-57 -59 0
-58 -59 0
-57 -58 60 0
57 -60 0
58 -60 0
59 60 61 0
-59 -61 0
-60 -61 0
39 -41 62 0
-39 -62 0
41 -62 0
62 42 63 0
-62 -63 0
-42 -63 0
63 64 65 0
-63 -65 0
-64 -65 0
-63 -64 66 0
63 -66 0
64 -66 0
65 66 67 0
-65 -67 0
-66 -67 0
-36 -68 69 0
36 -69 0
68 -69 0
36 68 70 0
-36 -70 0
-68 -70 0
69 70 71 0
-69 -71 0
-70 -71 0
-71 -38 72 0
71 -72 0
38 -72 0
-13 73 74 0
13 -74 0
-73 -74 0
13 -73 75 0
-13 -75 0
73 -75 0
74 75 76 0
-74 -76 0
-75 -76 0
72 76 77 0
-72 -77 0
-76 -77 0
36 78 79 0
-36 -79 0
-78 -79 0
-36 -78 80 0
36 -80 0
78 -80 0
79 80 81 0
-79 -81 0
-80 -81 0
71 38 82 0
-71 -82 0
-38 -82 0
-81 82 83 0
81 -83 0
-82 -83 0
-77 -83 84 0
77 -84 0
83 -84 0
-67 -84 85 0
67 -85 0
84 -85 0
-61 -85 86 0
61 -86 0
85 -86 0
45 -47 87 0
-45 -87 0
47 -87 0
87 48 88 0
-87 -88 0
-48 -88 0
-88 89 90 0
88 -90 0
-89 -90 0
88 -89 91 0
-88 -91 0
89 -91 0
90 91 92 0
-90 -92 0
-91 -92 0
-86 92 93 0
86 -93 0
-92 -93 0
-55 -93 94 0
55 -94 0
93 -94 0
50 34 95 0
-50 -95 0
-34 -95 0
95 -96 97 0
-95 -97 0
96 -97 0
-95 96 98 0
95 -98 0
-96 -98 0
97 98 99 0
-97 -99 0
-98 -99 0
-99 48 100 0
99 -100 0
-48 -100 0
99 -48 101 0
-99 -101 0
48 -101 0
100 101 102 0
-100 -102 0
-101 -102 0
-94 102 103 0
94 -103 0
-102 -103 0
-103 0
